; sally-chc-benchmarks/./hacms/eventclock4.invalid.02_000.smt2
(set-logic HORN)

(declare-fun |invariant| ( Real Bool Real Real Bool Bool Real Real Real Real Real Real Real Real Real Real Bool Real ) Bool)

(assert
  (forall ( (A Real) (B Bool) (C Real) (D Real) (E Bool) (F Bool) (G Real) (H Real) (I Real) (J Real) (K Real) (L Real) (M Real) (N Real) (O Real) (P Real) (Q Bool) (R Real) ) 
    (=>
      (and
        (and (= P (- 1.0))
     (= O (- 1.0))
     (= J 0.0)
     (= I 0.0)
     (= H 0.0)
     (= D 0.0)
     (= C 0.0)
     (= A 0.0)
     (not (<= 20.0 L))
     (not (<= 20.0 K))
     (<= 0.0 L)
     (<= 0.0 K)
     (<= N (+ 10.0 L))
     (not (<= N L))
     (<= M (+ 10.0 K))
     (not (<= M K))
     (or (= H 0.0) (= H 1.0) (= H 2.0))
     (or (= G 0.0) (= G 1.0) (= G 2.0))
     (or (= D 0.0) (= D 1.0) (= D 2.0))
     (or (= C 0.0) (= C 1.0) (= C 2.0))
     (or (= I 0.0) (= I 1.0))
     (not F)
     (not E)
     (not B)
     (= R 0.0))
      )
      (invariant A B C D E F G H I J K L M N O P Q R)
    )
  )
)
(assert
  (forall ( (A Real) (B Real) (C Bool) (D Bool) (E Real) (F Real) (G Real) (H Real) (I Bool) (J Bool) (K Bool) (L Bool) (M Real) (N Real) (O Real) (P Real) (Q Real) (R Real) (S Real) (T Real) (U Real) (V Real) (W Real) (X Real) (Y Real) (Z Real) (A1 Real) (B1 Real) (C1 Real) (D1 Real) (E1 Real) (F1 Real) (G1 Bool) (H1 Bool) (I1 Real) (J1 Real) ) 
    (=>
      (and
        (invariant A C E G I K M O Q S U W Y A1 C1 E1 G1 I1)
        (let ((a!1 (and (or C (not G1) (not (= C1 (- 1.0))) (not (= M 1.0)))
                (= D1 C1)
                (= D C)))
      (a!2 (or (and (= B 0.0) (= F 0.0) (not (= M 1.0)) (= O 0.0) (= P 0.0))
               (and (= B 0.0) (= F 0.0) (not (= M 2.0)) (= O 2.0) (= P 2.0))
               (and (= B 0.0) (= F 1.0) (= M 1.0) (= O 0.0) (= P 1.0))
               (and (= B 0.0) (= F 2.0) (= M 2.0) (= O 1.0) (= P 0.0))
               (and (= B 0.0) (= F 2.0) (= M 2.0) (= O 2.0) (= P 0.0))
               (and K (= B 0.0) (= F 0.0) (not (= M 2.0)) (= O 1.0) (= P 2.0))
               (and (not K)
                    (not (<= 1.0 A))
                    (= B (+ 1.0 A))
                    (= F 1.0)
                    (not (= M 2.0))
                    (= O 1.0)
                    (= P 1.0))
               (and (not K)
                    (<= 1.0 A)
                    (= B 0.0)
                    (= F 2.0)
                    (not (= M 2.0))
                    (= O 1.0)
                    (= P 0.0))))
      (a!4 (and (or (not C) (<= I1 0.0) (not (= E1 (- 1.0)))) (= F1 E1)))
      (a!6 (or (and (not J) (= J1 0.0) (not (= G 1.0)) (= Q 0.0) (= R 0.0))
               (and (not J) (= J1 0.0) (= G 2.0) (= Q 1.0) (= R 0.0))
               (and J
                    (not (<= J1 0.0))
                    (not (<= 5.0 J1))
                    (= G 1.0)
                    (= Q 0.0)
                    (= R 1.0))
               (and J
                    (not (<= J1 0.0))
                    (not (<= 5.0 J1))
                    (not (= G 2.0))
                    (= Q 1.0)
                    (= R 1.0)))))
(let ((a!3 (and (or a!1
                    (and (not C)
                         D
                         G1
                         (not H1)
                         (= C1 (- 1.0))
                         (= D1 S)
                         (= M 1.0)))
                a!2
                (<= S (+ (- 20.0) V))
                (<= V (+ 20.0 S))
                (= S U)
                (= Z Y)
                (= B1 A1)
                (= F1 E1)
                (= J1 I1)
                (= H G)
                (= R Q)
                (= X W)
                (= J I)
                (= L K)))
      (a!5 (or a!4 (and C (not (<= I1 0.0)) (= E1 (- 1.0)) (= F1 S)))))
(let ((a!7 (or a!3
               (and a!5
                    a!6
                    (<= S (+ (- 20.0) X))
                    (<= X (+ 20.0 S))
                    (= S W)
                    (= V U)
                    (= Z Y)
                    (= B1 A1)
                    (= D1 C1)
                    (= B A)
                    (= F E)
                    (= H G)
                    (= P O)
                    (= D C)
                    (= L K)
                    (= H1 G1))
               (and (not (<= Z U))
                    (<= Z (+ 10.0 U))
                    (= S Y)
                    (= V U)
                    (= B1 A1)
                    (= D1 C1)
                    (= F1 E1)
                    (= J1 I1)
                    (= B A)
                    (= F E)
                    (= H E)
                    (= P O)
                    (= R Q)
                    (= X W)
                    (= D C)
                    (= J I)
                    (= L K)
                    (= H1 G1))
               (and (not (<= B1 W))
                    (<= B1 (+ 10.0 W))
                    (= S A1)
                    (= V U)
                    (= Z Y)
                    (= D1 C1)
                    (= F1 E1)
                    (= J1 I1)
                    (= B A)
                    (= F E)
                    (= H G)
                    (= P O)
                    (= R Q)
                    (= X W)
                    (= D C)
                    (= J I)
                    (= L I)
                    (= H1 G1)))))
(let ((a!8 (or (and a!7 (= T S))
               (and (or (= T U) (= T Y) (= T A1) (= T W))
                    (not (<= U S))
                    (not (<= Y S))
                    (not (<= A1 S))
                    (<= T U)
                    (<= T Y)
                    (<= T A1)
                    (<= T W)
                    (not (<= W S))
                    (= V U)
                    (= Z Y)
                    (= B1 A1)
                    (= D1 C1)
                    (= F1 E1)
                    (= J1 I1)
                    (= B A)
                    (= F E)
                    (= H G)
                    (= P O)
                    (= R Q)
                    (= X W)
                    (= D C)
                    (= J I)
                    (= L K)
                    (= H1 G1)))))
  (and (or (= O 0.0) (= O 1.0) (= O 2.0))
       (or (= N 0.0) (= N 1.0) (= N 2.0))
       (or (= M 0.0) (= M 1.0) (= M 2.0))
       (or (= H 0.0) (= H 1.0) (= H 2.0))
       (or (= G 0.0) (= G 1.0) (= G 2.0))
       (or (= F 0.0) (= F 1.0) (= F 2.0))
       (or (= E 0.0) (= E 1.0) (= E 2.0))
       (or (= R 0.0) (= R 1.0))
       (or (= Q 0.0) (= Q 1.0))
       a!8
       (or (= P 0.0) (= P 1.0) (= P 2.0)))))))
      )
      (invariant B D F H J L N P R T V X Z B1 D1 F1 H1 J1)
    )
  )
)
(assert
  (forall ( (A Real) (B Bool) (C Real) (D Real) (E Bool) (F Bool) (G Real) (H Real) (I Real) (J Real) (K Real) (L Real) (M Real) (N Real) (O Real) (P Real) (Q Bool) (R Real) ) 
    (=>
      (and
        (invariant A B C D E F G H I J K L M N O P Q R)
        (<= O (+ (- 200.0) P))
      )
      false
    )
  )
)

(check-sat)
(exit)
